; QueryHash 15977003669302609916
(set-logic QF_AUFBV )
(declare-fun arg00 () (Array (_ BitVec 32) (_ BitVec 8) ) )
(assert (let ( (?B1 (select  arg00 (_ bv1 32) ) ) ) (and  (=  (_ bv69 8) ?B1 ) (=  false (=  (_ bv0 8) ?B1 ) ) ) ) )
(check-sat)
(exit)

; Assignments
; { "arg00": [0, 0, 0, 0, 0, 0, 0, 0, 0, 1, 0] }
; { "arg00": [0, 0, 0, 0, 0, 0, 0, 0, 0, 101, 0] }
; { "arg00": [0, 0, 0, 0, 0, 0, 0, 0, 0, 110, 0] }
; { "arg00": [0, 0, 0, 0, 0, 0, 0, 0, 0, 2, 0] }
; { "arg00": [0, 0, 0, 0, 0, 0, 0, 0, 0, 69, 0] }
; { "arg00": [0, 0, 0, 0, 0, 0, 0, 0, 1, 0, 0] }
; { "arg00": [0, 0, 0, 0, 0, 0, 0, 0, 101, 0, 0] }
; { "arg00": [0, 0, 0, 0, 0, 0, 0, 0, 110, 0, 0] }
; { "arg00": [0, 0, 0, 0, 0, 0, 0, 0, 2, 0, 0] }
; { "arg00": [0, 0, 0, 0, 0, 0, 0, 0, 69, 0, 0] }
; { "arg00": [0, 0, 0, 0, 0, 0, 0, 1, 0, 0, 0] }
; { "arg00": [0, 0, 0, 0, 0, 0, 0, 101, 0, 0, 0] }
; { "arg00": [0, 0, 0, 0, 0, 0, 0, 110, 0, 0, 0] }
; { "arg00": [0, 0, 0, 0, 0, 0, 0, 111, 0, 0, 0] }
; { "arg00": [0, 0, 0, 0, 0, 0, 0, 2, 0, 0, 0] }
; { "arg00": [0, 0, 0, 0, 0, 0, 0, 69, 0, 0, 0] }
; { "arg00": [0, 0, 0, 0, 0, 0, 1, 0, 0, 0, 0] }
; { "arg00": [0, 0, 0, 0, 0, 0, 101, 0, 0, 0, 0] }
; { "arg00": [0, 0, 0, 0, 0, 0, 105, 0, 0, 0, 0] }
; { "arg00": [0, 0, 0, 0, 0, 0, 110, 0, 0, 0, 0] }
; { "arg00": [0, 0, 0, 0, 0, 0, 2, 0, 0, 0, 0] }
; { "arg00": [0, 0, 0, 0, 0, 0, 69, 0, 0, 0, 0] }
; { "arg00": [0, 0, 0, 0, 0, 1, 0, 0, 0, 0, 0] }
; { "arg00": [0, 0, 0, 0, 0, 101, 0, 0, 0, 0, 0] }
; { "arg00": [0, 0, 0, 0, 0, 110, 0, 0, 0, 0, 0] }
; { "arg00": [0, 0, 0, 0, 0, 112, 0, 0, 0, 0, 0] }
; { "arg00": [0, 0, 0, 0, 0, 115, 0, 0, 0, 0, 0] }
; { "arg00": [0, 0, 0, 0, 0, 69, 0, 0, 0, 0, 0] }
; { "arg00": [0, 0, 0, 0, 1, 0, 0, 0, 0, 0, 0] }
; { "arg00": [0, 0, 0, 0, 101, 0, 0, 0, 0, 0, 0] }
; { "arg00": [0, 0, 0, 0, 108, 0, 0, 0, 0, 0, 0] }
; { "arg00": [0, 0, 0, 0, 110, 0, 0, 0, 0, 0, 0] }
; { "arg00": [0, 0, 0, 0, 114, 0, 0, 0, 0, 0, 0] }
; { "arg00": [0, 0, 0, 0, 69, 0, 0, 0, 0, 0, 0] }
; { "arg00": [0, 0, 0, 1, 0, 0, 0, 0, 0, 0, 0] }
; { "arg00": [0, 0, 0, 101, 0, 0, 0, 0, 0, 0, 0] }
; { "arg00": [0, 0, 0, 110, 0, 0, 0, 0, 0, 0, 0] }
; { "arg00": [0, 0, 0, 69, 0, 0, 0, 0, 0, 0, 0] }
; { "arg00": [0, 0, 101, 0, 0, 0, 0, 0, 0, 0, 0] }
; { "arg00": [0, 0, 104, 0, 0, 0, 0, 0, 0, 0, 0] }
; { "arg00": [0, 0, 110, 0, 0, 0, 0, 0, 0, 0, 0] }
; { "arg00": [0, 0, 118, 0, 0, 0, 0, 0, 0, 0, 0] }
; { "arg00": [0, 0, 69, 0, 0, 0, 0, 0, 0, 0, 0] }
; { "arg00": [0, 1, 0, 0, 0, 0, 0, 0, 0, 0, 0] }
; { "arg00": [0, 2, 0, 0, 0, 0, 0, 0, 0, 0, 0] }
; { "arg00": [0, 45, 0, 0, 0, 0, 0, 0, 0, 0, 0] }
; { "arg00": [0, 69, 0, 0, 0, 0, 0, 0, 0, 0, 0] }
; { "model_version": [1, 0, 0, 0] }
; { "n_args": [1, 0, 0, 0] }
; { "n_args": [2, 0, 0, 0] }
; { "n_args": [255, 255, 255, 127] }
; { "n_args": [3, 0, 0, 0] }
; { "n_args": [4, 0, 0, 0] }
; { "n_args": [5, 0, 0, 0] }
; { "n_args": [6, 0, 0, 0] }
